
Gurobi 13.0.2 (win64) logging started Thu Jul 23 17:36:06 2026

Set parameter LogFile to value "E:\codes\ExactEBRP\results\gf_gurobi_performance_recovery_round29\runs\stage2__high_imbalance_seed6202__c3_replica__300s\external\native_logs\R.1.0.1.0.1_lp.gurobi.log"
Gurobi Optimizer version 13.0.2 build v13.0.2rc1 (win64 - Windows 10.0 (19045.2))

CPU model: 12th Gen Intel(R) Core(TM) i7-12700KF, instruction set [SSE2|AVX|AVX2]
Thread count: 12 physical cores, 20 logical processors, using up to 1 threads

Non-default parameters:
TimeLimit  198.3683835
MIPGap  0
MIPGapAbs  0
LogToConsole  0
Threads  1

Optimize a model with 93009 rows, 18187 columns and 665803 nonzeros (Min)
Model fingerprint: 0x34cf07c6
Model has 51 linear objective coefficients
Coefficient statistics:
  Matrix range     [1e-02, 2e+04]
  Objective range  [1e-02, 1e+00]
  Bounds range     [6e-01, 5e+04]
  RHS range        [6e-01, 1e+05]

Presolve removed 15449 rows and 245 columns
Presolve time: 0.32s
Presolved: 17920 rows, 95483 columns, 450571 nonzeros

Iteration    Objective       Primal Inf.    Dual Inf.      Time
       0      handle free variables                          0s

Extra simplex iterations after uncrush: 15

Extra simplex iterations from dual to original model: 8
    8625    7.4772775e+00   0.000000e+00   0.000000e+00      2s

Solved in 8625 iterations and 2.31 seconds (7.26 work units)
Optimal objective  7.477277537e+00

User-callback calls 8799, time in user-callback 0.00 sec
